pair_coeff 2 2    0.0680 3.9150  # (ver=1.0, ref=1)
pair_coeff 6 6    0.0620 3.8540  # (ver=1.0, ref=1)
pair_coeff 9 9    0.0400 3.8540  # (ver=1.0, ref=1)
pair_coeff 10 10    0.0200 3.8540  # (ver=1.0, ref=1)
pair_coeff 13 13    0.0230 2.8780  # (ver=1.0, ref=1)
pair_coeff 39 39    0.0800 3.3000  # (ver=1.0, ref=2)
pair_coeff 43 43    0.1980 4.4050  # (ver=1.0, ref=2)
pair_coeff 44 44    0.1310 4.2900  # (ver=1.0, ref=2)
pair_coeff 11 11    0.0748 3.8700  # (ver=1.1, ref=8)
pair_coeff 15 15    0.0080 1.0870  # (ver=1.0, ref=3)
pair_coeff 34 34    0.0800 3.3000  # (ver=1.0, ref=3)
pair_coeff 35 35    0.1200 3.3000  # (ver=1.0, ref=3)
pair_coeff 36 36    0.0960 3.5800  # (ver=1.0, ref=3)
pair_coeff 21 21    0.0960 3.8300  # (ver=1.0, ref=4)
pair_coeff 40 40    0.0650 4.2950  # (ver=1.0, ref=4)
pair_coeff 16 16    0.0050 2.9000  # (ver=1.0, ref=5)
pair_coeff 27 27    0.0550 3.2000  # (ver=1.0, ref=5)
pair_coeff 1 1    0.2000 3.8800  # (ver=1.0, ref=5)
pair_coeff 17 17    0.2800 4.3000  # (ver=1.0, ref=5)
pair_coeff 45 45    0.3900 4.2600  # (ver=1.0, ref=5)
pair_coeff 14 14    0.0216 1.4210  # (ver=1.0, ref=5)
pair_coeff 18 18    0.0598 3.8008  # (ver=1.0, ref=5)
pair_coeff 3 3    0.0530 4.0120  # (ver=1.0, ref=5)
pair_coeff 33 33    0.0780 3.4758  # (ver=1.0, ref=5)
pair_coeff 31 31    0.0850 3.6020  # (ver=1.0, ref=5)
pair_coeff 19 19    0.1280 3.4600  # (ver=1.0, ref=5)
pair_coeff 32 32    0.1560 3.3000  # (ver=1.0, ref=5)
pair_coeff 4 4    0.0680 3.9150  # (ver=1.0, ref=5)
pair_coeff 42 42    0.1250 4.0470  # (ver=1.0, ref=5)
pair_coeff 22 22    0.3330 3.5290  # (ver=1.0, ref=5)
pair_coeff 28 28    0.1920 3.4300  # (ver=1.0, ref=5)
pair_coeff 29 29    0.0670 3.3600  # (ver=1.0, ref=5)
pair_coeff 41 41    0.3130 4.0070  # (ver=1.0, ref=5)
pair_coeff 26 26    0.0480 3.7600  # (ver=1.0, ref=6)
pair_coeff 30 30    0.0480 3.4000  # (ver=1.0, ref=6)
pair_coeff 37 37    0.2000 3.6500  # (ver=1.0, ref=6)
pair_coeff 5 5    0.0640 3.9000  # (ver=1.0, ref=7)
pair_coeff 25 25    0.1500 3.7200  # (ver=1.0, ref=7)
pair_coeff 38 38    0.0960 3.3000  # (ver=1.0, ref=7)
pair_coeff 7 7    0.1080 3.8700  # (ver=1.1, ref=8)
pair_coeff 8 8    0.0498 3.6700  # (ver=1.1, ref=8)
pair_coeff 12 12    0.0800 3.6500  # (ver=1.0, ref=9)
pair_coeff 20 20    0.0850 3.5200  # (ver=1.0, ref=9)
pair_coeff 23 23    0.0500 3.3000  # (ver=1.0, ref=9)
pair_coeff 24 24    0.1200 3.4000  # (ver=1.0, ref=9)
bond_coeff 1   1.4000 350.0000 0.0000 0.0000  # (ver=1.0, ref=10)
bond_coeff 2   2.3384 114.2164 -140.4212 80.7084  # (ver=1.0, ref=10)
bond_coeff 3   1.4783 202.7798 -305.3603 280.2685  # (ver=1.0, ref=10)
bond_coeff 4   1.8995 189.6536 -279.4210 307.5135  # (ver=1.0, ref=10)
bond_coeff 5   1.8634 233.2433 -276.8692 161.6659  # (ver=1.0, ref=10)
bond_coeff 6   1.0221 440.1623 -960.3246 1120.3787  # (ver=1.0, ref=9)
bond_coeff 7   1.4814 324.4578 -648.9156 757.0681  # (ver=1.0, ref=9)
bond_coeff 8   1.1354 1198.7450 -2675.4900 3121.4049  # (ver=1.0, ref=9)
bond_coeff 9   1.2343 720.3345 -1542.6689 1799.7804  # (ver=1.0, ref=9)
bond_coeff 10   1.1354 1337.7450 -2675.4900 3121.4049  # (ver=1.0, ref=9)
bond_coeff 11   1.3950 344.0452 -652.1208 1022.2242  # (ver=1.0, ref=7)
bond_coeff 12   1.3850 359.1591 -558.4730 1146.3810  # (ver=1.0, ref=7)
bond_coeff 13   1.4890 339.3574 -655.7236 670.2362  # (ver=1.0, ref=7)
bond_coeff 14   1.2160 823.7948 -1878.7939 2303.5310  # (ver=1.0, ref=7)
bond_coeff 15   1.5140 312.3719 -465.8290 473.8300  # (ver=1.0, ref=7)
bond_coeff 16   1.3750 368.7309 -832.4784 1274.0231  # (ver=1.0, ref=7)
bond_coeff 17   1.4020 300.0000 -1000.0000 2000.0000  # (ver=1.0, ref=6)
bond_coeff 18   1.2100 765.0664 -2070.2830 2793.3218  # (ver=1.0, ref=6)
bond_coeff 19   1.0400 439.9346 -943.7307 1180.9318  # (ver=1.0, ref=6)
bond_coeff 20   1.4350 400.3954 -835.1951 1313.0142  # (ver=1.0, ref=6)
bond_coeff 21   1.4740 301.6051 -535.7028 555.0420  # (ver=1.0, ref=6)
bond_coeff 22   1.4300 313.8329 -568.6087 600.9597  # (ver=1.0, ref=6)
bond_coeff 23   1.5540 559.0065 -1348.6633 1248.8604  # (ver=1.0, ref=5)
bond_coeff 24   1.1930 620.0000 -1808.6018 3077.5918  # (ver=1.0, ref=5)
bond_coeff 25   1.1600 1161.3421 -2564.5706 3932.8735  # (ver=1.0, ref=5)
bond_coeff 26   1.4308 730.8387 -1531.7910 1859.7753  # (ver=1.0, ref=5)
bond_coeff 27   1.1506 1147.8362 -3167.7349 5099.5811  # (ver=1.0, ref=5)
bond_coeff 28   1.1283 1368.7676 -3157.0007 4247.5298  # (ver=1.0, ref=5)
bond_coeff 29   1.2074 846.7150 -2247.1760 3478.9900  # (ver=1.0, ref=5)
bond_coeff 30   1.0977 1651.3730 -4069.3178 5984.9629  # (ver=1.0, ref=5)
bond_coeff 31   0.7412 414.2185 -805.6549 914.1296  # (ver=1.0, ref=5)
bond_coeff 32   1.6000 333.0980 -726.6230 924.6200  # (ver=1.0, ref=4)
bond_coeff 33   1.6780 329.0000 -713.7950 902.9190  # (ver=1.0, ref=4)
bond_coeff 34   1.5980 393.0060 -751.4050 767.4310  # (ver=1.0, ref=4)
bond_coeff 35   1.4300 285.2040 -575.6850 677.8460  # (ver=1.0, ref=4)
bond_coeff 36   1.0310 540.1120 -1500.2952 2431.0080  # (ver=1.0, ref=4)
bond_coeff 37   1.5650 340.0000 -882.3840 1197.9190  # (ver=1.0, ref=4)
bond_coeff 38   2.0000 158.7770 -239.1290 210.0840  # (ver=1.0, ref=4)
bond_coeff 39   1.8000 218.1400 -329.5110 290.3490  # (ver=1.0, ref=4)
bond_coeff 40   1.4740 337.0600 -147.3700 213.6330  # (ver=1.0, ref=4)
bond_coeff 41   1.7890 197.7020 -332.2510 325.7160  # (ver=1.0, ref=4)
bond_coeff 42   1.4000 350.0000 0.0000 0.0000  # (ver=1.0, ref=4)
bond_coeff 43   0.9494 540.3633 -1311.8663 2132.4446  # (ver=1.0, ref=3)
bond_coeff 44   1.4200 400.3954 -835.1951 1313.0142  # (ver=1.0, ref=3)
bond_coeff 45   1.4200 400.3954 -835.1951 1313.0142  # (ver=1.0, ref=3)
bond_coeff 46   1.3768 428.8798 -738.2351 1114.9655  # (ver=1.0, ref=3)
bond_coeff 47   1.3768 428.8798 -738.2351 1114.9655  # (ver=1.0, ref=3)
bond_coeff 48   1.3768 428.8798 -738.2350 1114.9655  # (ver=1.0, ref=3)
bond_coeff 49   1.6400 350.1232 -517.3424 673.7067  # (ver=1.0, ref=2)
bond_coeff 50   1.1010 345.0000 -691.8900 844.6000  # (ver=1.0, ref=1)
bond_coeff 51   1.5300 299.6700 -501.7700 679.8100  # (ver=1.0, ref=1)
bond_coeff 52   1.0982 372.8251 -803.4526 894.3173  # (ver=1.0, ref=1)
bond_coeff 53   1.5010 321.9021 -521.8208 572.1628  # (ver=1.0, ref=1)
bond_coeff 54   1.4170 470.8361 -627.6179 1327.6345  # (ver=1.0, ref=1)
angle_coeff 1   0.0 0.0 0.0 0.0  # (ver=1.0, ref=7)
angle_coeff 1   bb 0.0000 1.3768 1.3768  # (ver=1.0, ref=7)
angle_coeff 1   ba 0.0 0.0 1.3768 1.3768  # (ver=1.0, ref=7)
angle_coeff 2   0.0 0.0 0.0 0.0  # (ver=1.0, ref=7)
angle_coeff 2   bb 0.0000 1.3768 1.3768  # (ver=1.0, ref=7)
angle_coeff 2   ba 0.0 0.0 1.3768 1.3768  # (ver=1.0, ref=7)
angle_coeff 3   0.0 0.0 0.0 0.0  # (ver=1.0, ref=7)
angle_coeff 3   bb 0.0000 1.3768 1.3768  # (ver=1.0, ref=7)
angle_coeff 3   ba 0.0 0.0 1.3768 1.3768  # (ver=1.0, ref=7)
angle_coeff 4   0.0 0.0 0.0 0.0  # (ver=1.0, ref=7)
angle_coeff 4   bb 0.0000 1.5010 1.4200  # (ver=1.0, ref=7)
angle_coeff 4   ba 0.0 0.0 1.5010 1.4200  # (ver=1.0, ref=7)
angle_coeff 5   0.0 0.0 0.0 0.0  # (ver=1.0, ref=7)
angle_coeff 5   bb 0.0000 1.5010 1.4200  # (ver=1.0, ref=7)
angle_coeff 5   ba 0.0 0.0 1.5010 1.4200  # (ver=1.0, ref=7)
angle_coeff 6   0.0 0.0 0.0 0.0  # (ver=1.0, ref=7)
angle_coeff 6   bb 69.5999 1.3768 1.3750  # (ver=1.0, ref=7)
angle_coeff 6   ba 0.0 0.0 1.3768 1.3750  # (ver=1.0, ref=7)
angle_coeff 7   0.0 0.0 0.0 0.0  # (ver=1.0, ref=3)
angle_coeff 7   bb 8.2983 1.4200 1.4200  # (ver=1.0, ref=3)
angle_coeff 7   ba 0.0 0.0 1.4200 1.4200  # (ver=1.0, ref=3)
angle_coeff 8   0.0 0.0 0.0 0.0  # (ver=1.0, ref=3)
angle_coeff 8   bb 8.2983 1.4200 1.4200  # (ver=1.0, ref=3)
angle_coeff 8   ba 0.0 0.0 1.4200 1.4200  # (ver=1.0, ref=3)
angle_coeff 9   0.0 0.0 0.0 0.0  # (ver=1.0, ref=3)
angle_coeff 9   bb 8.2983 1.4200 1.4200  # (ver=1.0, ref=3)
angle_coeff 9   ba 0.0 0.0 1.4200 1.4200  # (ver=1.0, ref=3)
angle_coeff 10   0.0 0.0 0.0 0.0  # (ver=1.0, ref=3)
angle_coeff 10   bb 8.2983 1.4200 1.4200  # (ver=1.0, ref=3)
angle_coeff 10   ba 0.0 0.0 1.4200 1.4200  # (ver=1.0, ref=3)
angle_coeff 11   0.0 0.0 0.0 0.0  # (ver=1.0, ref=3)
angle_coeff 11   bb 4.5800 1.0982 1.3768  # (ver=1.0, ref=3)
angle_coeff 11   ba 0.0 0.0 1.0982 1.3768  # (ver=1.0, ref=3)
angle_coeff 12   0.0 0.0 0.0 0.0  # (ver=1.0, ref=3)
angle_coeff 12   bb 4.5800 1.0982 1.3768  # (ver=1.0, ref=3)
angle_coeff 12   ba 0.0 0.0 1.0982 1.3768  # (ver=1.0, ref=3)
angle_coeff 13   0.0 0.0 0.0 0.0  # (ver=1.0, ref=3)
angle_coeff 13   bb 4.5800 1.0982 1.3768  # (ver=1.0, ref=3)
angle_coeff 13   ba 0.0 0.0 1.0982 1.3768  # (ver=1.0, ref=3)
angle_coeff 14   108.3000 86.7690 -5.1750 -17.6710  # (ver=1.0, ref=4)
angle_coeff 14   bb 0.0 1.0 1.0  # (ver=1.0, ref=4)
angle_coeff 14   ba 0.0 0.0 1.0 1.0  # (ver=1.0, ref=4)
angle_coeff 15   107.1000 85.7690 -5.7790 -17.4890  # (ver=1.0, ref=4)
angle_coeff 15   bb 0.0 1.0 1.0  # (ver=1.0, ref=4)
angle_coeff 15   ba 0.0 0.0 1.0 1.0  # (ver=1.0, ref=4)
angle_coeff 16   123.2150 89.9230 -32.6120 -21.0960  # (ver=1.0, ref=4)
angle_coeff 16   bb 0.0 1.0 1.0  # (ver=1.0, ref=4)
angle_coeff 16   ba 0.0 0.0 1.0 1.0  # (ver=1.0, ref=4)
angle_coeff 17   103.9780 68.2570 -9.2210 -14.1740  # (ver=1.0, ref=4)
angle_coeff 17   bb 0.0 1.0 1.0  # (ver=1.0, ref=4)
angle_coeff 17   ba 0.0 0.0 1.0 1.0  # (ver=1.0, ref=4)
angle_coeff 18   108.1650 70.9770 -11.5480 -15.1090  # (ver=1.0, ref=4)
angle_coeff 18   bb 0.0 1.0 1.0  # (ver=1.0, ref=4)
angle_coeff 18   ba 0.0 0.0 1.0 1.0  # (ver=1.0, ref=4)
angle_coeff 19   117.0000 26.0310 -5.8280 -5.6200  # (ver=1.0, ref=4)
angle_coeff 19   bb 0.0 1.0 1.0  # (ver=1.0, ref=4)
angle_coeff 19   ba 0.0 0.0 1.0 1.0  # (ver=1.0, ref=4)
angle_coeff 20   118.2830 35.0010 -10.3600 -7.8700  # (ver=1.0, ref=4)
angle_coeff 20   bb 0.0 1.0 1.0  # (ver=1.0, ref=4)
angle_coeff 20   ba 0.0 0.0 1.0 1.0  # (ver=1.0, ref=4)
angle_coeff 21   120.0830 25.0010 -6.1170 -5.4570  # (ver=1.0, ref=4)
angle_coeff 21   bb 0.0 1.0 1.0  # (ver=1.0, ref=4)
angle_coeff 21   ba 0.0 0.0 1.0 1.0  # (ver=1.0, ref=4)
angle_coeff 22   120.0830 25.0010 -6.1170 -5.4570  # (ver=1.0, ref=4)
angle_coeff 22   bb 0.0 1.0 1.0  # (ver=1.0, ref=4)
angle_coeff 22   ba 0.0 0.0 1.0 1.0  # (ver=1.0, ref=4)
angle_coeff 23   122.8000 23.7764 -19.8152 9.6331  # (ver=1.0, ref=2)
angle_coeff 23   bb 0.0 1.0 1.0  # (ver=1.0, ref=2)
angle_coeff 23   ba 0.0 0.0 1.0 1.0  # (ver=1.0, ref=2)
angle_coeff 24   114.2676 24.9501 -19.5949 0.0000  # (ver=1.0, ref=10)
angle_coeff 24   bb 6.0704 2.3384 2.3384  # (ver=1.0, ref=10)
angle_coeff 24   ba 8.9899 8.9899 2.3384 2.3384  # (ver=1.0, ref=10)
angle_coeff 25   112.0893 22.5062 -11.5926 0.0000  # (ver=1.0, ref=10)
angle_coeff 25   bb 3.5172 1.4783 2.3384  # (ver=1.0, ref=10)
angle_coeff 25   ba 5.6630 2.0706 1.4783 2.3384  # (ver=1.0, ref=10)
angle_coeff 26   113.0000 19.4692 -34.3471 0.0000  # (ver=1.0, ref=10)
angle_coeff 26   bb 2.3030 1.8995 2.3384  # (ver=1.0, ref=10)
angle_coeff 26   ba 16.9455 11.4377 1.8995 2.3384  # (ver=1.0, ref=10)
angle_coeff 27   108.6051 32.5415 -8.3164 0.0000  # (ver=1.0, ref=10)
angle_coeff 27   bb 4.6408 1.4783 1.4783  # (ver=1.0, ref=10)
angle_coeff 27   ba 9.3467 9.3467 1.4783 1.4783  # (ver=1.0, ref=10)
angle_coeff 28   112.0977 36.4832 -12.8094 0.0000  # (ver=1.0, ref=10)
angle_coeff 28   bb 3.9340 1.8995 1.4783  # (ver=1.0, ref=10)
angle_coeff 28   ba 13.3961 7.4104 1.8995 1.4783  # (ver=1.0, ref=10)
angle_coeff 29   113.1855 36.2069 -20.3939 20.0172  # (ver=1.0, ref=10)
angle_coeff 29   bb 3.7419 1.8995 1.8995  # (ver=1.0, ref=10)
angle_coeff 29   ba 18.5805 18.5805 1.8995 1.8995  # (ver=1.0, ref=10)
angle_coeff 30   109.5932 41.9497 -42.3639 48.1442  # (ver=1.0, ref=10)
angle_coeff 30   bb 3.9264 1.8634 1.4783  # (ver=1.0, ref=10)
angle_coeff 30   ba 22.5947 8.7811 1.8634 1.4783  # (ver=1.0, ref=10)
angle_coeff 31   112.0355 28.7721 -13.9523 0.0000  # (ver=1.0, ref=10)
angle_coeff 31   bb 1.6561 1.1010 1.8995  # (ver=1.0, ref=10)
angle_coeff 31   ba 16.6908 18.2764 1.1010 1.8995  # (ver=1.0, ref=10)
angle_coeff 32   112.6700 39.5160 -7.4430 0.0000  # (ver=1.0, ref=10)
angle_coeff 32   bb 0.0 1.5300 1.8995  # (ver=1.0, ref=10)
angle_coeff 32   ba 0.0 0.0 1.5300 1.8995  # (ver=1.0, ref=10)
angle_coeff 33   120.0000 30.4689 -23.5439 0.0000  # (ver=1.0, ref=10)
angle_coeff 33   bb 21.3938 1.4170 1.8634  # (ver=1.0, ref=10)
angle_coeff 33   ba 14.5831 23.7679 1.4170 1.8634  # (ver=1.0, ref=10)
angle_coeff 34   110.9900 77.9387 0.9499 0.0033  # (ver=1.0, ref=9)
angle_coeff 34   bb 36.9309 1.5300 1.4814  # (ver=1.0, ref=9)
angle_coeff 34   ba 34.8803 67.8888 1.5300 1.4814  # (ver=1.0, ref=9)
angle_coeff 35   107.9744 52.7803 0.6615 0.0023  # (ver=1.0, ref=9)
angle_coeff 35   bb 18.4621 1.1010 1.4814  # (ver=1.0, ref=9)
angle_coeff 35   ba 3.3182 61.9652 1.1010 1.4814  # (ver=1.0, ref=9)
angle_coeff 36   113.5017 82.6294 0.9845 0.0033  # (ver=1.0, ref=9)
angle_coeff 36   bb 84.2075 1.4814 1.2343  # (ver=1.0, ref=9)
angle_coeff 36   ba 88.2679 195.9722 1.4814 1.2343  # (ver=1.0, ref=9)
angle_coeff 37   110.0345 55.7635 0.6618 0.0022  # (ver=1.0, ref=9)
angle_coeff 37   bb 14.9026 1.0221 1.2343  # (ver=1.0, ref=9)
angle_coeff 37   ba 37.4419 141.1218 1.0221 1.2343  # (ver=1.0, ref=9)
angle_coeff 38   171.6211 47.7899 0.0000 0.0000  # (ver=1.0, ref=9)
angle_coeff 38   bb 204.9909 1.1354 1.2343  # (ver=1.0, ref=9)
angle_coeff 38   ba 1.2222 25.5611 1.1354 1.2343  # (ver=1.0, ref=9)
angle_coeff 39   121.5420 92.5720 -34.4800 -11.1871  # (ver=1.0, ref=7)
angle_coeff 39   bb 138.4954 1.3850 1.2160  # (ver=1.0, ref=7)
angle_coeff 39   ba 62.7124 52.4045 1.3850 1.2160  # (ver=1.0, ref=7)
angle_coeff 40   100.3182 88.8631 -3.8323 -7.9802  # (ver=1.0, ref=7)
angle_coeff 40   bb 19.1069 1.5140 1.3750  # (ver=1.0, ref=7)
angle_coeff 40   ba 1.3435 4.6978 1.5140 1.3750  # (ver=1.0, ref=7)
angle_coeff 41   119.3000 65.1016 -17.9766 0.0000  # (ver=1.0, ref=7)
angle_coeff 41   bb 77.5201 1.5140 1.2160  # (ver=1.0, ref=7)
angle_coeff 41   ba 31.8455 46.6613 1.5140 1.2160  # (ver=1.0, ref=7)
angle_coeff 42   118.9855 98.6813 -22.2485 10.3673  # (ver=1.0, ref=7)
angle_coeff 42   bb 210.1813 1.2160 1.3750  # (ver=1.0, ref=7)
angle_coeff 42   ba 79.4497 57.0987 1.2160 1.3750  # (ver=1.0, ref=7)
angle_coeff 43   120.0700 47.1131 -32.5592 13.1257  # (ver=1.0, ref=7)
angle_coeff 43   bb 0.0000 1.3950 1.3850  # (ver=1.0, ref=7)
angle_coeff 43   ba 0.0 0.0 1.3950 1.3850  # (ver=1.0, ref=7)
angle_coeff 44   120.7640 73.2738 -27.4033 13.3920  # (ver=1.0, ref=7)
angle_coeff 44   bb 37.8749 1.4170 1.3950  # (ver=1.0, ref=7)
angle_coeff 44   ba 35.8865 53.6977 1.4170 1.3950  # (ver=1.0, ref=7)
angle_coeff 45   125.5320 72.3167 -16.0650 2.0818  # (ver=1.0, ref=7)
angle_coeff 45   bb 116.9445 1.4890 1.2160  # (ver=1.0, ref=7)
angle_coeff 45   ba 72.8758 76.1093 1.4890 1.2160  # (ver=1.0, ref=7)
angle_coeff 46   108.4400 84.8377 -19.9640 2.7405  # (ver=1.0, ref=7)
angle_coeff 46   bb 0.0000 1.4890 1.3850  # (ver=1.0, ref=7)
angle_coeff 46   ba 0.0 0.0 1.4890 1.3850  # (ver=1.0, ref=7)
angle_coeff 47   116.0640 71.2598 -15.8273 2.0506  # (ver=1.0, ref=7)
angle_coeff 47   bb 37.8749 1.4170 1.4890  # (ver=1.0, ref=7)
angle_coeff 47   ba 45.8865 23.6977 1.4170 1.4890  # (ver=1.0, ref=7)
angle_coeff 48   121.9556 76.3105 -26.3166 -17.6944  # (ver=1.0, ref=7)
angle_coeff 48   bb 25.9530 1.3850 1.3850  # (ver=1.0, ref=7)
angle_coeff 48   ba 20.0533 20.0533 1.3850 1.3850  # (ver=1.0, ref=7)
angle_coeff 49   107.8594 38.0833 -17.5074 0.0000  # (ver=1.0, ref=7)
angle_coeff 49   bb 2.2522 1.5140 1.1010  # (ver=1.0, ref=7)
angle_coeff 49   ba 15.5988 14.6287 1.5140 1.1010  # (ver=1.0, ref=7)
angle_coeff 50   109.0000 38.9739 -6.2595 -8.1710  # (ver=1.0, ref=7)
angle_coeff 50   bb 0.0 1.3750 1.4200  # (ver=1.0, ref=7)
angle_coeff 50   ba 21.5366 -16.6748 1.3750 1.4200  # (ver=1.0, ref=7)
angle_coeff 51   112.8000 85.5228 -18.4582 -14.4215  # (ver=1.0, ref=6)
angle_coeff 51   bb 80.0000 1.2100 1.4020  # (ver=1.0, ref=6)
angle_coeff 51   ba 0.0 0.0 1.2100 1.4020  # (ver=1.0, ref=6)
angle_coeff 52   105.0000 54.5381 -8.3642 -13.0838  # (ver=1.0, ref=6)
angle_coeff 52   bb 11.4318 1.5300 1.4350  # (ver=1.0, ref=6)
angle_coeff 52   ba 2.6868 20.4033 1.5300 1.4350  # (ver=1.0, ref=6)
angle_coeff 53   108.5000 55.7454 -10.0067 -6.2729  # (ver=1.0, ref=6)
angle_coeff 53   bb 0.0 1.4350 1.4020  # (ver=1.0, ref=6)
angle_coeff 53   ba 0.0 0.0 1.4350 1.4020  # (ver=1.0, ref=6)
angle_coeff 54   128.0000 95.1035 -47.4240 -27.9164  # (ver=1.0, ref=6)
angle_coeff 54   bb 265.7106 1.2100 1.2100  # (ver=1.0, ref=6)
angle_coeff 54   ba 95.6936 95.6936 1.2100 1.2100  # (ver=1.0, ref=6)
angle_coeff 55   115.7000 53.8034 -14.1991 -11.8708  # (ver=1.0, ref=6)
angle_coeff 55   bb 14.8226 1.0400 1.2100  # (ver=1.0, ref=6)
angle_coeff 55   ba -8.6275 58.6036 1.0400 1.2100  # (ver=1.0, ref=6)
angle_coeff 56   117.5000 64.5228 -18.4582 -14.4215  # (ver=1.0, ref=6)
angle_coeff 56   bb 48.1403 1.4740 1.2100  # (ver=1.0, ref=6)
angle_coeff 56   ba 27.2141 93.9927 1.4740 1.2100  # (ver=1.0, ref=6)
angle_coeff 57   117.7000 63.9404 -18.4524 -14.3129  # (ver=1.0, ref=6)
angle_coeff 57   bb 93.7948 1.4300 1.2100  # (ver=1.0, ref=6)
angle_coeff 57   ba 40.3757 92.1955 1.4300 1.2100  # (ver=1.0, ref=6)
angle_coeff 58   108.7280 58.5446 -10.8088 -12.4006  # (ver=1.0, ref=6)
angle_coeff 58   bb 23.1979 1.1010 1.4350  # (ver=1.0, ref=6)
angle_coeff 58   ba 4.6189 55.3270 1.1010 1.4350  # (ver=1.0, ref=6)
angle_coeff 59   107.0000 54.9318 -9.1333 -11.5434  # (ver=1.0, ref=6)
angle_coeff 59   bb 3.3770 1.1010 1.4740  # (ver=1.0, ref=6)
angle_coeff 59   ba 12.2491 30.5314 1.1010 1.4740  # (ver=1.0, ref=6)
angle_coeff 60   118.8000 29.2436 -8.8495 -6.6020  # (ver=1.0, ref=6)
angle_coeff 60   bb 21.0495 1.4170 1.4300  # (ver=1.0, ref=6)
angle_coeff 60   ba 30.5211 59.8025 1.4170 1.4300  # (ver=1.0, ref=6)
angle_coeff 61   119.3000 115.2627 -35.6278 -26.1261  # (ver=1.0, ref=5)
angle_coeff 61   bb 20.0000 1.4308 1.4308  # (ver=1.0, ref=5)
angle_coeff 61   ba 45.0585 45.0585 1.4308 1.4308  # (ver=1.0, ref=5)
angle_coeff 62   134.1000 150.0000 -82.1013 -40.0005  # (ver=1.0, ref=5)
angle_coeff 62   bb 20.0000 1.1930 1.1930  # (ver=1.0, ref=5)
angle_coeff 62   ba -50.0000 -50.0000 1.1930 1.1930  # (ver=1.0, ref=5)
angle_coeff 63   180.0000 48.0000 0.0000 0.0000  # (ver=1.0, ref=5)
angle_coeff 63   bb 100.7369 1.5540 1.5540  # (ver=1.0, ref=5)
angle_coeff 63   ba 0.0 0.0 1.5540 1.5540  # (ver=1.0, ref=5)
angle_coeff 64   180.0000 57.1000 0.0000 0.0000  # (ver=1.0, ref=5)
angle_coeff 64   bb 275.4350 1.1600 1.1600  # (ver=1.0, ref=5)
angle_coeff 64   ba 0.0 0.0 1.1600 1.1600  # (ver=1.0, ref=5)
angle_coeff 65   107.5000 86.7690 -4.5700 -17.8520  # (ver=1.0, ref=4)
angle_coeff 65   bb 0.0 1.6000 1.6000  # (ver=1.0, ref=4)
angle_coeff 65   ba 0.0 0.0 1.6000 1.6000  # (ver=1.0, ref=4)
angle_coeff 66   112.2150 99.9230 -32.0930 -22.8210  # (ver=1.0, ref=4)
angle_coeff 66   bb 0.0 1.5980 1.6000  # (ver=1.0, ref=4)
angle_coeff 66   ba 0.0 0.0 1.5980 1.6000  # (ver=1.0, ref=4)
angle_coeff 67   125.0000 90.5230 -20.8010 -19.6020  # (ver=1.0, ref=4)
angle_coeff 67   bb 20.0000 1.5980 1.5980  # (ver=1.0, ref=4)
angle_coeff 67   ba 0.0 0.0 1.5980 1.5980  # (ver=1.0, ref=4)
angle_coeff 68   103.9780 73.2570 -9.8970 -15.2120  # (ver=1.0, ref=4)
angle_coeff 68   bb 0.0 1.4300 1.6000  # (ver=1.0, ref=4)
angle_coeff 68   ba 0.0 0.0 1.4300 1.6000  # (ver=1.0, ref=4)
angle_coeff 69   110.0330 45.9780 -14.0520 -10.3990  # (ver=1.0, ref=4)
angle_coeff 69   bb 12.5700 1.4300 1.5980  # (ver=1.0, ref=4)
angle_coeff 69   ba -24.3830 72.9250 1.4300 1.5980  # (ver=1.0, ref=4)
angle_coeff 70   101.4080 39.6950 -5.1340 -8.2270  # (ver=1.0, ref=4)
angle_coeff 70   bb 20.0000 1.4300 1.4300  # (ver=1.0, ref=4)
angle_coeff 70   ba 0.0 0.0 1.4300 1.4300  # (ver=1.0, ref=4)
angle_coeff 71   119.3000 47.3660 -14.6410 -10.7360  # (ver=1.0, ref=4)
angle_coeff 71   bb 1.0720 1.8000 1.5980  # (ver=1.0, ref=4)
angle_coeff 71   ba -7.1280 26.3530 1.8000 1.5980  # (ver=1.0, ref=4)
angle_coeff 72   102.9000 52.0710 -6.4680 -10.7730  # (ver=1.0, ref=4)
angle_coeff 72   bb 3.8820 1.8000 1.4300  # (ver=1.0, ref=4)
angle_coeff 72   ba 11.1260 -19.4700 1.8000 1.4300  # (ver=1.0, ref=4)
angle_coeff 73   102.5000 48.2320 -5.7980 -9.9660  # (ver=1.0, ref=4)
angle_coeff 73   bb 6.2460 1.8000 1.8000  # (ver=1.0, ref=4)
angle_coeff 73   ba 12.8050 12.8050 1.8000 1.8000  # (ver=1.0, ref=4)
angle_coeff 74   107.3650 71.9770 -10.9430 -15.2900  # (ver=1.0, ref=4)
angle_coeff 74   bb 0.0 1.7890 1.6000  # (ver=1.0, ref=4)
angle_coeff 74   ba 0.0 0.0 1.7890 1.6000  # (ver=1.0, ref=4)
angle_coeff 75   109.6000 63.0620 -19.7400 -14.3290  # (ver=1.0, ref=4)
angle_coeff 75   bb 0.0 1.7890 1.5980  # (ver=1.0, ref=4)
angle_coeff 75   ba 0.0 0.0 1.7890 1.5980  # (ver=1.0, ref=4)
angle_coeff 76   108.2310 36.1850 -6.4880 -7.6460  # (ver=1.0, ref=4)
angle_coeff 76   bb 0.0 1.7890 1.4300  # (ver=1.0, ref=4)
angle_coeff 76   ba 0.0 0.0 1.7890 1.4300  # (ver=1.0, ref=4)
angle_coeff 77   110.2310 56.1850 -17.3160 -12.7280  # (ver=1.0, ref=4)
angle_coeff 77   bb 0.0 1.7890 1.7890  # (ver=1.0, ref=4)
angle_coeff 77   ba 0.0 0.0 1.7890 1.7890  # (ver=1.0, ref=4)
angle_coeff 78   135.0000 23.8680 -8.7360 0.0000  # (ver=1.0, ref=4)
angle_coeff 78   bb 20.0000 1.5980 1.5980  # (ver=1.0, ref=4)
angle_coeff 78   ba 0.0 0.0 1.5980 1.5980  # (ver=1.0, ref=4)
angle_coeff 79   120.0000 26.0680 -8.2980 -5.9430  # (ver=1.0, ref=4)
angle_coeff 79   bb -18.2870 1.0310 1.5980  # (ver=1.0, ref=4)
angle_coeff 79   ba 40.0630 90.7910 1.0310 1.5980  # (ver=1.0, ref=4)
angle_coeff 80   110.9100 31.0910 0.0000 0.0000  # (ver=1.0, ref=4)
angle_coeff 80   bb 1.4570 1.0310 1.0310  # (ver=1.0, ref=4)
angle_coeff 80   ba 8.4900 8.4900 1.0310 1.0310  # (ver=1.0, ref=4)
angle_coeff 81   117.2000 37.2620 0.0000 0.0000  # (ver=1.0, ref=4)
angle_coeff 81   bb 12.5630 1.4740 1.0310  # (ver=1.0, ref=4)
angle_coeff 81   ba 18.4860 7.8370 1.4740 1.0310  # (ver=1.0, ref=4)
angle_coeff 82   110.8860 33.8300 -7.0430 -7.2460  # (ver=1.0, ref=4)
angle_coeff 82   bb 1.0500 1.1010 1.8000  # (ver=1.0, ref=4)
angle_coeff 82   ba 19.8120 16.9400 1.1010 1.8000  # (ver=1.0, ref=4)
angle_coeff 83   107.4990 62.7310 0.0000 0.0000  # (ver=1.0, ref=4)
angle_coeff 83   bb 5.6640 1.1010 1.4740  # (ver=1.0, ref=4)
angle_coeff 83   ba 6.4070 46.3730 1.1010 1.4740  # (ver=1.0, ref=4)
angle_coeff 84   117.3170 55.2420 0.0000 0.0000  # (ver=1.0, ref=4)
angle_coeff 84   bb 22.7100 1.5300 1.4740  # (ver=1.0, ref=4)
angle_coeff 84   ba 19.2440 59.4220 1.5300 1.4740  # (ver=1.0, ref=4)
angle_coeff 85   120.0010 47.8410 -15.2290 -10.9070  # (ver=1.0, ref=4)
angle_coeff 85   bb 0.0 1.4170 1.7890  # (ver=1.0, ref=4)
angle_coeff 85   ba 0.0 0.0 1.4170 1.7890  # (ver=1.0, ref=4)
angle_coeff 86   120.0000 60.0000 0.0000 0.0000  # (ver=1.0, ref=4)
angle_coeff 86   bb 0.0 1.4170 1.4000  # (ver=1.0, ref=4)
angle_coeff 86   ba 0.0 0.0 1.4170 1.4000  # (ver=1.0, ref=4)
angle_coeff 87   105.8000 52.7061 -12.1090 -9.8681  # (ver=1.0, ref=3)
angle_coeff 87   bb -9.6879 1.4200 0.9494  # (ver=1.0, ref=3)
angle_coeff 87   ba 28.5800 18.9277 1.4200 0.9494  # (ver=1.0, ref=3)
angle_coeff 88   104.5000 35.7454 -10.0067 -6.2729  # (ver=1.0, ref=3)
angle_coeff 88   bb -7.1131 1.4200 1.4200  # (ver=1.0, ref=3)
angle_coeff 88   ba -2.8112 -2.8112 1.4200 1.4200  # (ver=1.0, ref=3)
angle_coeff 89   104.5000 35.7454 -10.0067 -6.2729  # (ver=1.0, ref=3)
angle_coeff 89   bb -7.1131 1.4200 1.4200  # (ver=1.0, ref=3)
angle_coeff 89   ba -2.8112 -2.8112 1.4200 1.4200  # (ver=1.0, ref=3)
angle_coeff 90   108.1900 53.1250 -8.5016 0.0000  # (ver=1.0, ref=3)
angle_coeff 90   bb 20.6577 1.3768 0.9494  # (ver=1.0, ref=3)
angle_coeff 90   ba 53.8614 23.9224 1.3768 0.9494  # (ver=1.0, ref=3)
angle_coeff 91   102.9695 38.9739 -6.2595 -8.1710  # (ver=1.0, ref=3)
angle_coeff 91   bb 0.0 1.3768 1.4200  # (ver=1.0, ref=3)
angle_coeff 91   ba 0.0 0.0 1.3768 1.4200  # (ver=1.0, ref=3)
angle_coeff 92   102.9695 38.9739 -6.2595 -8.1710  # (ver=1.0, ref=3)
angle_coeff 92   bb 0.0 1.3768 1.4200  # (ver=1.0, ref=3)
angle_coeff 92   ba 0.0 0.0 1.3768 1.4200  # (ver=1.0, ref=3)
angle_coeff 93   108.7280 58.5446 -10.8088 -12.4006  # (ver=1.0, ref=3)
angle_coeff 93   bb 23.1979 1.1010 1.4200  # (ver=1.0, ref=3)
angle_coeff 93   ba 4.6189 55.3270 1.1010 1.4200  # (ver=1.0, ref=3)
angle_coeff 94   108.7280 58.5446 -10.8088 -12.4006  # (ver=1.0, ref=3)
angle_coeff 94   bb 23.1979 1.1010 1.4200  # (ver=1.0, ref=3)
angle_coeff 94   ba 4.6189 55.3270 1.1010 1.4200  # (ver=1.0, ref=3)
angle_coeff 95   111.2700 54.5381 -8.3642 -13.0838  # (ver=1.0, ref=3)
angle_coeff 95   bb 11.4318 1.5300 1.4200  # (ver=1.0, ref=3)
angle_coeff 95   ba 2.6868 20.4033 1.5300 1.4200  # (ver=1.0, ref=3)
angle_coeff 96   111.2700 54.5381 -8.3642 -13.0838  # (ver=1.0, ref=3)
angle_coeff 96   bb 11.4318 1.5300 1.4200  # (ver=1.0, ref=3)
angle_coeff 96   ba 2.6868 20.4033 1.5300 1.4200  # (ver=1.0, ref=3)
angle_coeff 97   123.4200 73.6781 -21.6787 0.0000  # (ver=1.0, ref=3)
angle_coeff 97   bb 48.4754 1.4170 1.3768  # (ver=1.0, ref=3)
angle_coeff 97   ba 58.4790 107.6806 1.4170 1.3768  # (ver=1.0, ref=3)
angle_coeff 98   123.4200 73.6781 -21.6787 0.0000  # (ver=1.0, ref=3)
angle_coeff 98   bb 48.4754 1.4170 1.3768  # (ver=1.0, ref=3)
angle_coeff 98   ba 58.4790 107.6806 1.4170 1.3768  # (ver=1.0, ref=3)
angle_coeff 99   123.4200 73.6781 -21.6787 0.0000  # (ver=1.0, ref=3)
angle_coeff 99   bb 48.4754 1.4170 1.3768  # (ver=1.0, ref=3)
angle_coeff 99   ba 58.4790 107.6806 1.4170 1.3768  # (ver=1.0, ref=3)
angle_coeff 100   110.7000 70.3069 -6.9375 0.0000  # (ver=1.0, ref=2)
angle_coeff 100   bb 41.1143 1.6400 1.6400  # (ver=1.0, ref=2)
angle_coeff 100   ba 23.4380 23.4380 1.6400 1.6400  # (ver=1.0, ref=2)
angle_coeff 101   107.4000 57.6643 -10.6506 4.6274  # (ver=1.0, ref=2)
angle_coeff 101   bb 11.6183 1.4783 1.6400  # (ver=1.0, ref=2)
angle_coeff 101   ba 6.4278 20.5669 1.4783 1.6400  # (ver=1.0, ref=2)
angle_coeff 102   114.9060 23.0218 -31.3993 24.9814  # (ver=1.0, ref=2)
angle_coeff 102   bb 5.4896 1.8995 1.6400  # (ver=1.0, ref=2)
angle_coeff 102   ba 6.4278 20.5669 1.8995 1.6400  # (ver=1.0, ref=2)
angle_coeff 103   114.9060 23.0218 -31.3993 24.9814  # (ver=1.0, ref=2)
angle_coeff 103   bb 0.0 1.8634 1.6400  # (ver=1.0, ref=2)
angle_coeff 103   ba 0.0 0.0 1.8634 1.6400  # (ver=1.0, ref=2)
angle_coeff 104   159.0000 8.5000 -13.4188 -4.1785  # (ver=1.0, ref=2)
angle_coeff 104   bb 41.1143 1.6400 1.6400  # (ver=1.0, ref=2)
angle_coeff 104   ba 28.6686 28.6686 1.6400 1.6400  # (ver=1.0, ref=2)
angle_coeff 105   107.6600 39.6410 -12.9210 -2.4318  # (ver=1.0, ref=1)
angle_coeff 105   bb 5.3316 1.1010 1.1010  # (ver=1.0, ref=1)
angle_coeff 105   ba 18.1030 18.1030 1.1010 1.1010  # (ver=1.0, ref=1)
angle_coeff 106   110.7700 41.4530 -10.6040 5.1290  # (ver=1.0, ref=1)
angle_coeff 106   bb 3.3872 1.5300 1.1010  # (ver=1.0, ref=1)
angle_coeff 106   ba 20.7540 11.4210 1.5300 1.1010  # (ver=1.0, ref=1)
angle_coeff 107   112.6700 39.5160 -7.4430 -9.5583  # (ver=1.0, ref=1)
angle_coeff 107   bb 0.0 1.5300 1.5300  # (ver=1.0, ref=1)
angle_coeff 107   ba 8.0160 8.0160 1.5300 1.5300  # (ver=1.0, ref=1)
angle_coeff 108   111.0000 44.3234 -9.4454 0.0000  # (ver=1.0, ref=1)
angle_coeff 108   bb 2.9168 1.5010 1.1010  # (ver=1.0, ref=1)
angle_coeff 108   ba 26.4608 11.7717 1.5010 1.1010  # (ver=1.0, ref=1)
angle_coeff 109   108.4000 43.9594 -8.3924 -9.3379  # (ver=1.0, ref=1)
angle_coeff 109   bb 0.0 1.5010 1.5300  # (ver=1.0, ref=1)
angle_coeff 109   ba 0.0 0.0 1.5010 1.5300  # (ver=1.0, ref=1)
angle_coeff 110   111.0000 44.3234 -9.4454 0.0000  # (ver=1.0, ref=1)
angle_coeff 110   bb 0.0 1.5010 1.5010  # (ver=1.0, ref=1)
angle_coeff 110   ba 0.0 0.0 1.5010 1.5010  # (ver=1.0, ref=1)
angle_coeff 111   117.9400 35.1558 -12.4682 0.0000  # (ver=1.0, ref=1)
angle_coeff 111   bb 1.0795 1.4170 1.0982  # (ver=1.0, ref=1)
angle_coeff 111   ba 20.0033 24.2183 1.4170 1.0982  # (ver=1.0, ref=1)
angle_coeff 112   120.0500 44.7148 -22.7352 0.0000  # (ver=1.0, ref=1)
angle_coeff 112   bb 12.0676 1.4170 1.5010  # (ver=1.0, ref=1)
angle_coeff 112   ba 31.0771 47.0579 1.4170 1.5010  # (ver=1.0, ref=1)
angle_coeff 113   118.9000 61.0226 -34.9931 0.0000  # (ver=1.0, ref=1)
angle_coeff 113   bb 68.2856 1.4170 1.4170  # (ver=1.0, ref=1)
angle_coeff 113   ba 28.8708 28.8708 1.4170 1.4170  # (ver=1.0, ref=1)
dihedral_coeff 1   0.0 0.0 0.0 0.0 0.0 0.0  # (ver=1.0, ref=10)
dihedral_coeff 1   mbt 0.0 0.0 0.0 2.3384  # (ver=1.0, ref=10)
dihedral_coeff 1   ebt 0.0 0.0 0.0 0.0 0.0 0.0 1.4783 2.3384  # (ver=1.0, ref=10)
dihedral_coeff 1   at 0.0 0.0 0.0 0.0 0.0 0.0 112.0893 114.2676  # (ver=1.0, ref=10)
dihedral_coeff 1   aat -12.2900 112.0893 114.2676  # (ver=1.0, ref=10)
dihedral_coeff 1   bb13 0.0 1.4783 2.3384  # (ver=1.0, ref=10)
dihedral_coeff 2   0.0 0.0 0.0 0.0 0.0 0.0  # (ver=1.0, ref=10)
dihedral_coeff 2   mbt 0.0 0.0 0.0 1.8995  # (ver=1.0, ref=10)
dihedral_coeff 2   ebt 0.0 0.0 0.0 0.0 0.0 0.0 1.4783 1.1010  # (ver=1.0, ref=10)
dihedral_coeff 2   at 0.0 0.0 0.0 0.0 0.0 0.0 112.0977 112.0355  # (ver=1.0, ref=10)
dihedral_coeff 2   aat -12.9341 112.0977 112.0355  # (ver=1.0, ref=10)
dihedral_coeff 2   bb13 0.0 1.4783 1.1010  # (ver=1.0, ref=10)
dihedral_coeff 3   0.0 0.0 0.0 0.0 0.0 0.0  # (ver=1.0, ref=10)
dihedral_coeff 3   mbt 0.0 0.0 0.0 1.8995  # (ver=1.0, ref=10)
dihedral_coeff 3   ebt 0.0 0.0 0.0 0.0 0.0 0.0 1.8995 1.1010  # (ver=1.0, ref=10)
dihedral_coeff 3   at 0.4272 0.0000 0.0000 0.3382 0.0000 0.0000 113.1855 112.0355  # (ver=1.0, ref=10)
dihedral_coeff 3   aat -17.5802 113.1855 112.0355  # (ver=1.0, ref=10)
dihedral_coeff 3   bb13 0.0 1.8995 1.1010  # (ver=1.0, ref=10)
dihedral_coeff 4   0.0 0.0 0.0 0.0 0.0 0.0  # (ver=1.0, ref=10)
dihedral_coeff 4   mbt 0.0000 0.0000 -0.6302 2.3384  # (ver=1.0, ref=10)
dihedral_coeff 4   ebt 0.0 0.0 0.0 0.0 0.0 0.0 1.4783 1.4783  # (ver=1.0, ref=10)
dihedral_coeff 4   at 0.0 0.0 0.0 0.0 0.0 0.0 112.0893 112.0893  # (ver=1.0, ref=10)
dihedral_coeff 4   aat -10.8232 112.0893 112.0893  # (ver=1.0, ref=10)